sing20220724.12
TTAA  74111 48698
99004 25025 00502 00069 25640 00000 92757 22228 33504
85482 19036 11504 70125 09616 02004 50585 04730 09016
40757 14325 08016 30969 28557 13008 25097 38765 12510
20246 51757 21004 15426 67945 23502 10658 86137 08510
88101 86133 07010
77999=
TTCC  74113 48698
70865 72564 09025 50066 64174 09053 30390 54785 33502
88999
77999=
TTDD  7411/ 48698
11952 84143 22930 80157 33905 79750 44862 73959 55757 69964
66694 72765 77615 71967 88552 64972 99501 64174 11445 56981
22387 52186 33335 57384 44311 56785 55287 50390
21212 11984 10014 22931 08023 33798 10041 44744 10527 55679
07527 66558 08558 77483 09053 88453 09547 99409 14012 11403
16006 22398 22504 33394 25006 44388 26508 55340 27010 66324
31010 77302 36002 88301 33502 99300 33502 11299 29502 22295
26002 33287 31006=
